c File: instances/28_0.65_3.col
c
c Description: Random graph of size 28 vertices and P(0.65) of edges between any two vertices.
p col 28 378
e 1 2
e 1 3
e 1 5
e 1 6
e 1 7
e 1 9
e 1 13
e 1 14
e 1 15
e 1 16
e 1 17
e 1 18
e 1 20
e 1 21
e 1 23
e 1 24
e 1 25
e 1 26
e 1 27
e 1 28
e 2 6
e 2 8
e 2 9
e 2 12
e 2 15
e 2 16
e 2 17
e 2 18
e 2 21
e 2 22
e 2 23
e 2 24
e 2 25
e 2 27
e 3 4
e 3 5
e 3 7
e 3 8
e 3 9
e 3 10
e 3 11
e 3 12
e 3 13
e 3 16
e 3 18
e 3 20
e 3 24
e 3 26
e 4 5
e 4 6
e 4 9
e 4 10
e 4 14
e 4 15
e 4 16
e 4 17
e 4 20
e 4 23
e 4 24
e 4 25
e 4 26
e 5 6
e 5 7
e 5 9
e 5 10
e 5 11
e 5 12
e 5 13
e 5 15
e 5 16
e 5 17
e 5 18
e 5 19
e 5 20
e 5 22
e 5 24
e 5 25
e 6 8
e 6 9
e 6 12
e 6 14
e 6 15
e 6 16
e 6 17
e 6 19
e 6 21
e 6 22
e 6 24
e 6 28
e 7 10
e 7 11
e 7 13
e 7 14
e 7 16
e 7 20
e 7 21
e 7 22
e 7 23
e 7 24
e 7 25
e 7 27
e 7 28
e 8 9
e 8 14
e 8 15
e 8 17
e 8 18
e 8 19
e 8 20
e 8 22
e 8 24
e 8 25
e 8 28
e 9 10
e 9 11
e 9 14
e 9 15
e 9 16
e 9 18
e 9 19
e 9 21
e 9 23
e 9 24
e 9 27
e 9 28
e 10 11
e 10 15
e 10 17
e 10 18
e 10 19
e 10 21
e 10 22
e 10 23
e 10 24
e 10 26
e 10 27
e 11 12
e 11 15
e 11 17
e 11 18
e 11 19
e 11 20
e 11 21
e 11 22
e 11 23
e 11 24
e 11 25
e 11 28
e 12 13
e 12 14
e 12 16
e 12 17
e 12 18
e 12 19
e 12 20
e 12 21
e 12 24
e 12 25
e 12 28
e 13 17
e 13 18
e 13 19
e 13 21
e 13 22
e 13 23
e 14 15
e 14 17
e 14 18
e 14 19
e 14 20
e 14 22
e 14 23
e 14 25
e 14 27
e 14 28
e 15 16
e 15 17
e 15 20
e 15 21
e 15 24
e 15 25
e 15 26
e 15 27
e 16 17
e 16 19
e 16 20
e 16 21
e 16 22
e 16 23
e 16 24
e 16 25
e 16 27
e 17 18
e 17 21
e 17 24
e 17 25
e 17 28
e 18 23
e 18 25
e 18 26
e 18 27
e 18 28
e 19 20
e 19 21
e 19 23
e 19 24
e 19 25
e 19 26
e 19 27
e 20 24
e 20 25
e 20 26
e 20 27
e 20 28
e 21 22
e 21 23
e 21 24
e 21 25
e 21 26
e 22 24
e 22 25
e 22 26
e 22 27
e 23 24
e 23 25
e 23 26
e 23 28
e 24 25
e 24 27
e 25 26
e 25 28